200
1000
210
210
210
208
207
207
207
206
206
206
205
205
205
205
204
204
203
203
202
201
201
200
200
198
198
198
197
196
196
194
192
192
192
190
190
189
189
188
187
187
187
186
186
186
185
185
184
184
183
182
182
181
181
180
179
179
179
178
177
177
177
176
175
175
174
173
173
172
170
169
169
168
167
167
167
166
166
165
164
164
162
159
158
158
157
157
156
155
154
152
151
150
150
150
149
148
148
147
147
146
146
146
146
146
146
145
145
143
143
142
140
140
138
138
136
136
135
134
133
133
133
132
132
131
131
130
129
129
129
127
127
127
124
124
122
122
121
121
119
119
118
117
116
115
114
114
114
113
113
112
112
112
111
109
108
106
102
102
101
101
100
100
99
99
97
97
96
95
95
94
93
93
93
92
92
91
91
90
89
89
89
88
86
86
86
85
84
84
84
82
82
82
81
81
77
76
75
74
74
72
